100 151974
32 68 94 54 25 55 8 58 61 76 62 26 5 72 90 66 92 28 77 36 19 80 10 99 87 51 27 52 59 81 100 69 79 30 50 12 20 84 67 4 96 44 43 40 41 64 49 88 60 1 37 56 46 98 24 83 38 93 89 22 47 6 17 63 65 95 35 18 73 74 53 21 48 16 86 78 14 3 91 33 42 45 11 9 39 29 2 57 23 75 85 7 70 71 31 82 97 15 13 34 
